NAME: random-80-19236
TYPE: TSP
COMMENT: size=80 seed=19236
DIMENSION: 162
EDGE_WEIGHT_TYPE: EUC_2D
NODE_COORD_SECTION
+0 452 854
-0 452 854
+1 24 675
-1 496 682
+2 126 911
-2 921 763
+3 464 657
-3 816 425
+4 402 288
-4 615 37
+5 98 14
-5 461 693
+6 588 196
-6 821 642
+7 282 324
-7 922 269
+8 776 301
-8 287 877
+9 701 314
-9 883 287
+10 668 292
-10 801 619
+11 256 314
-11 758 830
+12 269 334
-12 868 825
+13 357 448
-13 878 946
+14 638 507
-14 697 353
+15 945 41
-15 207 672
+16 623 514
-16 579 273
+17 351 742
-17 71 833
+18 997 102
-18 210 806
+19 168 435
-19 44 579
+20 959 267
-20 109 15
+21 465 497
-21 966 106
+22 861 804
-22 573 904
+23 636 321
-23 82 945
+24 854 543
-24 908 454
+25 491 692
-25 528 198
+26 800 76
-26 327 847
+27 224 908
-27 805 598
+28 271 602
-28 567 869
+29 281 640
-29 492 556
+30 110 645
-30 305 945
+31 368 310
-31 141 822
+32 503 156
-32 198 819
+33 875 490
-33 625 430
+34 409 493
-34 491 181
+35 143 550
-35 562 149
+36 18 79
-36 24 942
+37 757 557
-37 270 39
+38 92 510
-38 917 340
+39 465 391
-39 401 527
+40 779 308
-40 132 597
+41 553 616
-41 932 227
+42 801 900
-42 955 692
+43 537 528
-43 382 771
+44 851 618
-44 620 66
+45 79 312
-45 872 317
+46 147 280
-46 472 712
+47 311 447
-47 929 844
+48 257 218
-48 767 547
+49 812 959
-49 94 511
+50 893 591
-50 812 183
+51 687 785
-51 837 723
+52 1 984
-52 337 25
+53 492 621
-53 745 194
+54 594 242
-54 847 51
+55 239 442
-55 756 798
+56 231 569
-56 843 123
+57 30 132
-57 360 520
+58 623 205
-58 866 147
+59 237 927
-59 317 831
+60 948 54
-60 309 564
+61 740 476
-61 843 250
+62 948 284
-62 67 216
+63 916 115
-63 703 719
+64 92 639
-64 960 721
+65 392 73
-65 878 396
+66 932 458
-66 633 131
+67 259 707
-67 7 678
+68 347 250
-68 946 331
+69 807 678
-69 278 131
+70 379 833
-70 961 381
+71 926 20
-71 800 614
+72 241 870
-72 26 446
+73 567 926
-73 521 367
+74 88 769
-74 944 200
+75 884 363
-75 614 328
+76 405 755
-76 518 856
+77 862 355
-77 384 748
+78 667 366
-78 381 42
+79 355 626
-79 463 995
+80 263 915
-80 283 10
PRECEDENCE_SECTION
+0 -0
+1 -1
+2 -2
+3 -3
+4 -4
+5 -5
+6 -6
+7 -7
+8 -8
+9 -9
+10 -10
+11 -11
+12 -12
+13 -13
+14 -14
+15 -15
+16 -16
+17 -17
+18 -18
+19 -19
+20 -20
+21 -21
+22 -22
+23 -23
+24 -24
+25 -25
+26 -26
+27 -27
+28 -28
+29 -29
+30 -30
+31 -31
+32 -32
+33 -33
+34 -34
+35 -35
+36 -36
+37 -37
+38 -38
+39 -39
+40 -40
+41 -41
+42 -42
+43 -43
+44 -44
+45 -45
+46 -46
+47 -47
+48 -48
+49 -49
+50 -50
+51 -51
+52 -52
+53 -53
+54 -54
+55 -55
+56 -56
+57 -57
+58 -58
+59 -59
+60 -60
+61 -61
+62 -62
+63 -63
+64 -64
+65 -65
+66 -66
+67 -67
+68 -68
+69 -69
+70 -70
+71 -71
+72 -72
+73 -73
+74 -74
+75 -75
+76 -76
+77 -77
+78 -78
+79 -79
+80 -80
EOF
